presolving:
(round 1, fast)       32895 del vars, 67518 del conss, 0 add conss, 167895 chg bounds, 0 chg sides, 0 chg coeffs, 0 upgd conss, 0 impls, 0 clqs
(round 2, fast)       46737 del vars, 114986 del conss, 0 add conss, 167895 chg bounds, 0 chg sides, 20763 chg coeffs, 0 upgd conss, 0 impls, 0 clqs
(round 3, fast)       47468 del vars, 114986 del conss, 0 add conss, 171459 chg bounds, 0 chg sides, 20763 chg coeffs, 0 upgd conss, 0 impls, 0 clqs
   (0.9s) running MILP presolver
   (0.9s) MILP presolver (3 rounds): 0 aggregations, 0 fixings, 141 bound changes
(round 4, exhaustive) 47468 del vars, 114986 del conss, 0 add conss, 171600 chg bounds, 0 chg sides, 24468 chg coeffs, 20763 upgd conss, 0 impls, 0 clqs
   (1.1s) probing: 51/769 (6.6%) - 0 fixings, 0 aggregations, 0 implications, 0 bound changes
   (1.1s) probing aborted: 50/50 successive totally useless probings
   (1.1s) symmetry computation started: requiring (bin +, int -, cont +), (fixed: bin -, int +, cont -)
   (1.2s) no symmetry present
presolving (5 rounds: 5 fast, 2 medium, 2 exhaustive):
 47468 deleted vars, 114986 deleted constraints, 0 added constraints, 171600 tightened bounds, 0 added holes, 0 changed sides, 24468 changed coefficients
 20763 implications, 0 cliques
presolved problem has 21532 variables (769 bin, 0 int, 0 impl, 20763 cont) and 21559 constraints
  20763 constraints of type <varbound>
    796 constraints of type <linear>
Presolving Time: 0.94

 time | node  | left  |LP iter|LP it/n|mem/heur|mdpt |vars |cons |rows |cuts |sepa|confs|strbr|  dualbound   | primalbound  |  gap   | compl. 
p 1.3s|     1 |     0 |    39 |     - |   locks|   0 |  21k|  21k|  21k|   0 |  0 |   0 |   0 | 0.000000e+00 | 2.415715e+06 |    Inf | unknown
i 1.3s|     1 |     0 |    39 |     - |  oneopt|   0 |  21k|  21k|  21k|   0 |  0 |   0 |   0 | 0.000000e+00 | 5.812930e+05 |    Inf | unknown
  1.4s|     1 |     0 |   472 |     - |   337M |   0 |  21k|  21k|  21k|   0 |  0 |   0 |   0 | 5.085197e+05 | 5.812930e+05 |  14.31%| unknown
r 1.4s|     1 |     0 |   472 |     - |simplero|   0 |  21k|  21k|  21k|   0 |  0 |   0 |   0 | 5.085197e+05 | 5.742872e+05 |  12.93%| unknown
r 1.5s|     1 |     0 |   472 |     - |shifting|   0 |  21k|  21k|  21k|   0 |  0 |   0 |   0 | 5.085197e+05 | 5.706997e+05 |  12.23%| unknown
  1.7s|     1 |     0 |   555 |     - |   353M |   0 |  21k|  21k|  21k|  25 |  1 |   0 |   0 | 5.232416e+05 | 5.706997e+05 |   9.07%| unknown
r 1.7s|     1 |     0 |   555 |     - |simplero|   0 |  21k|  21k|  21k|  25 |  1 |   0 |   0 | 5.232416e+05 | 5.569517e+05 |   6.44%| unknown
  1.9s|     1 |     0 |   576 |     - |   362M |   0 |  21k|  21k|  21k|  31 |  2 |   0 |   0 | 5.242696e+05 | 5.569517e+05 |   6.23%| unknown
r 1.9s|     1 |     0 |   576 |     - |simplero|   0 |  21k|  21k|  21k|  31 |  2 |   0 |   0 | 5.242696e+05 | 5.554182e+05 |   5.94%| unknown
  2.2s|     1 |     0 |   602 |     - |   371M |   0 |  21k|  21k|  21k|  43 |  3 |   0 |   0 | 5.253895e+05 | 5.554182e+05 |   5.72%| unknown
r 2.2s|     1 |     0 |   602 |     - |shifting|   0 |  21k|  21k|  21k|  43 |  3 |   0 |   0 | 5.253895e+05 | 5.552160e+05 |   5.68%| unknown
  2.5s|     1 |     0 |   660 |     - |   383M |   0 |  21k|  21k|  21k|  56 |  4 |   0 |   0 | 5.268278e+05 | 5.552160e+05 |   5.39%| unknown
r 2.5s|     1 |     0 |   660 |     - |shifting|   0 |  21k|  21k|  21k|  56 |  4 |   0 |   0 | 5.268278e+05 | 5.539888e+05 |   5.16%| unknown
  2.8s|     1 |     0 |   691 |     - |   392M |   0 |  21k|  21k|  21k|  65 |  5 |   0 |   0 | 5.271073e+05 | 5.539888e+05 |   5.10%| unknown
r 2.8s|     1 |     0 |   691 |     - |shifting|   0 |  21k|  21k|  21k|  65 |  5 |   0 |   0 | 5.271073e+05 | 5.538758e+05 |   5.08%| unknown
 time | node  | left  |LP iter|LP it/n|mem/heur|mdpt |vars |cons |rows |cuts |sepa|confs|strbr|  dualbound   | primalbound  |  gap   | compl. 
  3.2s|     1 |     0 |   706 |     - |   404M |   0 |  21k|  21k|  21k|  73 |  6 |   0 |   0 | 5.273364e+05 | 5.538758e+05 |   5.03%| unknown
r 3.3s|     1 |     0 |   706 |     - |shifting|   0 |  21k|  21k|  21k|  73 |  6 |   0 |   0 | 5.273364e+05 | 5.514893e+05 |   4.58%| unknown
  3.6s|     1 |     0 |   718 |     - |   412M |   0 |  21k|  21k|  21k|  78 |  7 |   0 |   0 | 5.274724e+05 | 5.514893e+05 |   4.55%| unknown
r 3.7s|     1 |     0 |   718 |     - |shifting|   0 |  21k|  21k|  21k|  78 |  7 |   0 |   0 | 5.274724e+05 | 5.511595e+05 |   4.49%| unknown
  4.0s|     1 |     0 |   728 |     - |   420M |   0 |  21k|  21k|  21k|  83 |  8 |   0 |   0 | 5.275146e+05 | 5.511595e+05 |   4.48%| unknown
  4.5s|     1 |     0 |   741 |     - |   427M |   0 |  21k|  21k|  21k|  88 |  9 |   0 |   0 | 5.275852e+05 | 5.511595e+05 |   4.47%| unknown
  4.8s|     1 |     0 |   767 |     - |   435M |   0 |  21k|  21k|  21k|  94 | 10 |   0 |   0 | 5.278219e+05 | 5.511595e+05 |   4.42%| unknown
  5.2s|     1 |     0 |   786 |     - |   442M |   0 |  21k|  21k|  21k| 100 | 11 |   0 |   0 | 5.279925e+05 | 5.511595e+05 |   4.39%| unknown
  5.5s|     1 |     0 |   826 |     - |   449M |   0 |  21k|  21k|  21k| 113 | 12 |   0 |   0 | 5.288814e+05 | 5.511595e+05 |   4.21%| unknown
  5.9s|     1 |     0 |   863 |     - |   459M |   0 |  21k|  21k|  21k| 124 | 13 |   0 |   0 | 5.292363e+05 | 5.511595e+05 |   4.14%| unknown
  6.3s|     1 |     0 |   903 |     - |   466M |   0 |  21k|  21k|  21k| 134 | 14 |   0 |   0 | 5.294742e+05 | 5.511595e+05 |   4.10%| unknown
  6.6s|     1 |     0 |   924 |     - |   471M |   0 |  21k|  21k|  21k| 143 | 15 |   0 |   0 | 5.295923e+05 | 5.511595e+05 |   4.07%| unknown
  7.0s|     1 |     0 |   949 |     - |   481M |   0 |  21k|  21k|  21k| 150 | 16 |   0 |   0 | 5.296835e+05 | 5.511595e+05 |   4.05%| unknown
  7.6s|     1 |     0 |   970 |     - |   487M |   0 |  21k|  21k|  21k| 159 | 17 |   0 |   0 | 5.297828e+05 | 5.511595e+05 |   4.03%| unknown
  8.0s|     1 |     0 |   991 |     - |   494M |   0 |  21k|  21k|  21k| 166 | 18 |   0 |   0 | 5.299205e+05 | 5.511595e+05 |   4.01%| unknown
 time | node  | left  |LP iter|LP it/n|mem/heur|mdpt |vars |cons |rows |cuts |sepa|confs|strbr|  dualbound   | primalbound  |  gap   | compl. 
  8.5s|     1 |     0 |  1007 |     - |   505M |   0 |  21k|  21k|  21k| 174 | 19 |   0 |   0 | 5.299642e+05 | 5.511595e+05 |   4.00%| unknown
  9.0s|     1 |     0 |  1018 |     - |   511M |   0 |  21k|  21k|  21k| 181 | 20 |   0 |   0 | 5.299922e+05 | 5.511595e+05 |   3.99%| unknown
  9.5s|     1 |     0 |  1031 |     - |   516M |   0 |  21k|  21k|  21k| 187 | 21 |   0 |   0 | 5.300790e+05 | 5.511595e+05 |   3.98%| unknown
 10.1s|     1 |     0 |  1059 |     - |   523M |   0 |  21k|  21k|  21k| 193 | 22 |   0 |   0 | 5.302053e+05 | 5.511595e+05 |   3.95%| unknown
 10.5s|     1 |     0 |  1082 |     - |   528M |   0 |  21k|  21k|  21k| 201 | 23 |   0 |   0 | 5.302604e+05 | 5.511595e+05 |   3.94%| unknown
 11.2s|     1 |     0 |  1109 |     - |   533M |   0 |  21k|  21k|  21k| 208 | 24 |   0 |   0 | 5.303117e+05 | 5.511595e+05 |   3.93%| unknown
 11.7s|     1 |     0 |  1131 |     - |   542M |   0 |  21k|  21k|  21k| 213 | 25 |   0 |   0 | 5.303766e+05 | 5.511595e+05 |   3.92%| unknown
 12.3s|     1 |     0 |  1149 |     - |   546M |   0 |  21k|  21k|  21k| 219 | 26 |   0 |   0 | 5.304188e+05 | 5.511595e+05 |   3.91%| unknown
 13.0s|     1 |     0 |  1170 |     - |   551M |   0 |  21k|  21k|  21k| 225 | 27 |   0 |   0 | 5.304796e+05 | 5.511595e+05 |   3.90%| unknown
 13.7s|     1 |     0 |  1185 |     - |   558M |   0 |  21k|  21k|  21k| 230 | 28 |   0 |   0 | 5.304956e+05 | 5.511595e+05 |   3.90%| unknown
 14.4s|     1 |     0 |  1200 |     - |   564M |   0 |  21k|  21k|  21k| 234 | 29 |   0 |   0 | 5.305044e+05 | 5.511595e+05 |   3.89%| unknown
 15.2s|     1 |     0 |  1219 |     - |   567M |   0 |  21k|  21k|  21k| 237 | 30 |   0 |   0 | 5.305274e+05 | 5.511595e+05 |   3.89%| unknown
 15.8s|     1 |     0 |  1236 |     - |   577M |   0 |  21k|  21k|  21k| 244 | 31 |   0 |   0 | 5.305508e+05 | 5.511595e+05 |   3.88%| unknown
 16.5s|     1 |     0 |  1268 |     - |   581M |   0 |  21k|  21k|  21k| 250 | 32 |   0 |   0 | 5.305993e+05 | 5.511595e+05 |   3.87%| unknown
 17.2s|     1 |     0 |  1291 |     - |   587M |   0 |  21k|  21k|  21k| 254 | 33 |   0 |   0 | 5.306280e+05 | 5.511595e+05 |   3.87%| unknown
 time | node  | left  |LP iter|LP it/n|mem/heur|mdpt |vars |cons |rows |cuts |sepa|confs|strbr|  dualbound   | primalbound  |  gap   | compl. 
 17.9s|     1 |     0 |  1319 |     - |   593M |   0 |  21k|  21k|  21k| 258 | 34 |   0 |   0 | 5.306596e+05 | 5.511595e+05 |   3.86%| unknown
 18.7s|     1 |     0 |  1369 |     - |   598M |   0 |  21k|  21k|  21k| 270 | 35 |   0 |   0 | 5.309077e+05 | 5.511595e+05 |   3.81%| unknown
 19.2s|     1 |     0 |  1412 |     - |   606M |   0 |  21k|  21k|  21k| 281 | 36 |   0 |   0 | 5.309701e+05 | 5.511595e+05 |   3.80%| unknown
 19.8s|     1 |     0 |  1473 |     - |   612M |   0 |  21k|  21k|  21k| 292 | 37 |   0 |   0 | 5.311002e+05 | 5.511595e+05 |   3.78%| unknown
 20.6s|     1 |     0 |  1504 |     - |   620M |   0 |  21k|  21k|  21k| 301 | 38 |   0 |   0 | 5.312473e+05 | 5.511595e+05 |   3.75%| unknown
 21.2s|     1 |     0 |  1537 |     - |   625M |   0 |  21k|  21k|  21k| 310 | 39 |   0 |   0 | 5.313663e+05 | 5.511595e+05 |   3.72%| unknown
 21.9s|     1 |     0 |  1566 |     - |   632M |   0 |  21k|  21k|  21k| 319 | 40 |   0 |   0 | 5.313905e+05 | 5.511595e+05 |   3.72%| unknown
 22.5s|     1 |     0 |  1596 |     - |   636M |   0 |  21k|  21k|  21k| 328 | 41 |   0 |   0 | 5.314243e+05 | 5.511595e+05 |   3.71%| unknown
 23.3s|     1 |     0 |  1637 |     - |   644M |   0 |  21k|  21k|  21k| 334 | 42 |   0 |   0 | 5.314487e+05 | 5.511595e+05 |   3.71%| unknown
 24.1s|     1 |     0 |  1658 |     - |   651M |   0 |  21k|  21k|  21k| 341 | 43 |   0 |   0 | 5.314617e+05 | 5.511595e+05 |   3.71%| unknown
 24.9s|     1 |     0 |  1690 |     - |   657M |   0 |  21k|  21k|  21k| 350 | 44 |   0 |   0 | 5.314964e+05 | 5.511595e+05 |   3.70%| unknown
 26.2s|     1 |     0 |  1718 |     - |   665M |   0 |  21k|  21k|  21k| 355 | 45 |   0 |   0 | 5.315061e+05 | 5.511595e+05 |   3.70%| unknown
 27.4s|     1 |     0 |  1743 |     - |   671M |   0 |  21k|  21k|  21k| 361 | 46 |   0 |   0 | 5.315210e+05 | 5.511595e+05 |   3.69%| unknown
 28.2s|     1 |     0 |  1776 |     - |   673M |   0 |  21k|  21k|  21k| 366 | 47 |   0 |   0 | 5.315489e+05 | 5.511595e+05 |   3.69%| unknown
 29.3s|     1 |     0 |  1809 |     - |   680M |   0 |  21k|  21k|  21k| 371 | 48 |   0 |   0 | 5.315695e+05 | 5.511595e+05 |   3.69%| unknown
 time | node  | left  |LP iter|LP it/n|mem/heur|mdpt |vars |cons |rows |cuts |sepa|confs|strbr|  dualbound   | primalbound  |  gap   | compl. 
 30.5s|     1 |     0 |  1815 |     - |   685M |   0 |  21k|  21k|  21k| 373 | 49 |   0 |   0 | 5.315702e+05 | 5.511595e+05 |   3.69%| unknown
 31.3s|     1 |     0 |  1889 |     - |   688M |   0 |  21k|  21k|  21k| 383 | 50 |   0 |   0 | 5.317092e+05 | 5.511595e+05 |   3.66%| unknown
 32.1s|     1 |     0 |  1965 |     - |   697M |   0 |  21k|  21k|  21k| 394 | 51 |   0 |   0 | 5.318528e+05 | 5.511595e+05 |   3.63%| unknown
 33.2s|     1 |     0 |  2024 |     - |   706M |   0 |  21k|  21k|  21k| 402 | 52 |   0 |   0 | 5.318862e+05 | 5.511595e+05 |   3.62%| unknown
 33.9s|     1 |     0 |  2091 |     - |   709M |   0 |  21k|  21k|  21k| 410 | 53 |   0 |   0 | 5.319260e+05 | 5.511595e+05 |   3.62%| unknown
 35.0s|     1 |     0 |  2166 |     - |   719M |   0 |  21k|  21k|  21k| 420 | 54 |   0 |   0 | 5.319723e+05 | 5.511595e+05 |   3.61%| unknown
 35.9s|     1 |     0 |  2209 |     - |   727M |   0 |  21k|  21k|  21k| 426 | 55 |   0 |   0 | 5.319878e+05 | 5.511595e+05 |   3.60%| unknown
 37.1s|     1 |     0 |  2270 |     - |   733M |   0 |  21k|  21k|  21k| 433 | 56 |   0 |   0 | 5.320041e+05 | 5.511595e+05 |   3.60%| unknown
 38.2s|     1 |     0 |  2323 |     - |   740M |   0 |  21k|  21k|  21k| 439 | 57 |   0 |   0 | 5.320182e+05 | 5.511595e+05 |   3.60%| unknown
 39.3s|     1 |     0 |  2380 |     - |   745M |   0 |  21k|  21k|  21k| 445 | 58 |   0 |   0 | 5.320288e+05 | 5.511595e+05 |   3.60%| unknown
 40.2s|     1 |     0 |  2428 |     - |   752M |   0 |  21k|  21k|  21k| 451 | 59 |   0 |   0 | 5.320360e+05 | 5.511595e+05 |   3.59%| unknown
 41.4s|     1 |     0 |  2477 |     - |   758M |   0 |  21k|  21k|  21k| 455 | 60 |   0 |   0 | 5.320457e+05 | 5.511595e+05 |   3.59%| unknown
 42.8s|     1 |     0 |  2539 |     - |   765M |   0 |  21k|  21k|  21k| 460 | 61 |   0 |   0 | 5.320612e+05 | 5.511595e+05 |   3.59%| unknown
r43.2s|     1 |     0 |  2990 |     - |intshift|   0 |  21k|  21k|  21k| 460 | 61 |   0 |   0 | 5.320612e+05 | 5.437540e+05 |   2.20%| unknown
L48.6s|     1 |     0 |  4163 |     - |    rens|   0 |  21k|  21k|  21k| 460 | 61 |  38k|   0 | 5.320612e+05 | 5.325020e+05 |   0.08%| unknown
 time | node  | left  |LP iter|LP it/n|mem/heur|mdpt |vars |cons |rows |cuts |sepa|confs|strbr|  dualbound   | primalbound  |  gap   | compl. 
 48.9s|     1 |     0 |  4163 |     - |   799M |   0 |  21k|  21k|  21k| 460 | 61 |  38k|   0 | 5.320612e+05 | 5.325020e+05 |   0.08%| unknown
 49.1s|     1 |     0 |  4191 |     - |   807M |   0 |  21k|  21k|  21k| 460 | 61 |  38k|   0 | 5.320658e+05 | 5.325020e+05 |   0.08%| unknown
 49.1s|     1 |     0 |  4191 |     - |   807M |   0 |  21k|  21k|  21k| 460 | 61 |  38k|   0 | 5.320658e+05 | 5.325020e+05 |   0.08%| unknown
 49.6s|     1 |     0 |  4213 |     - |   808M |   0 |  21k|  21k|4744 | 464 | 62 |  38k|   0 | 5.320734e+05 | 5.325020e+05 |   0.08%| unknown
 49.7s|     1 |     0 |  4246 |     - |   808M |   0 |  21k|  21k|4748 | 468 | 63 |  38k|   0 | 5.320823e+05 | 5.325020e+05 |   0.08%| unknown
 49.7s|     1 |     0 |  4246 |     - |   808M |   0 |  21k|  21k|4748 | 468 | 63 |  38k|   0 | 5.320823e+05 | 5.325020e+05 |   0.08%| unknown
 49.7s|     1 |     0 |  4246 |     - |   808M |   0 |  21k|4280 |4748 | 468 | 63 |  38k|   0 | 5.320823e+05 | 5.325020e+05 |   0.08%| unknown
 50.5s|     1 |     0 |  4311 |     - |   810M |   0 |  21k|4280 |4700 | 475 | 64 |  38k|   0 | 5.321139e+05 | 5.325020e+05 |   0.07%| unknown
 50.6s|     1 |     0 |  4311 |     - |   810M |   0 |  21k|4280 |4636 | 475 | 64 |  38k|   0 | 5.321139e+05 | 5.325020e+05 |   0.07%| unknown
 50.7s|     1 |     0 |  4366 |     - |   811M |   0 |  21k|4280 |4644 | 483 | 65 |  38k|   0 | 5.321262e+05 | 5.325020e+05 |   0.07%| unknown
 50.7s|     1 |     0 |  4366 |     - |   811M |   0 |  21k|4280 |4643 | 483 | 65 |  38k|   0 | 5.321262e+05 | 5.325020e+05 |   0.07%| unknown
 50.7s|     1 |     0 |  4366 |     - |   811M |   0 |  21k|4113 |4643 | 483 | 65 |  38k|   0 | 5.321262e+05 | 5.325020e+05 |   0.07%| unknown
 51.2s|     1 |     0 |  4400 |     - |   813M |   0 |  21k|4113 |4649 | 489 | 66 |  38k|   0 | 5.321392e+05 | 5.325020e+05 |   0.07%| unknown
 51.3s|     1 |     0 |  4425 |     - |   813M |   0 |  21k|4113 |4654 | 494 | 67 |  38k|   0 | 5.321434e+05 | 5.325020e+05 |   0.07%| unknown
(run 1, node 1) restarting after 624 global fixings of integer variables

(restart) converted 222 cuts from the global cut pool into linear constraints

presolving:
(round 1, fast)       16797 del vars, 1 del conss, 0 add conss, 0 chg bounds, 0 chg sides, 2500 chg coeffs, 0 upgd conss, 20763 impls, 0 clqs
   (53.3s) running MILP presolver
   (53.4s) MILP presolver found nothing
(round 2, exhaustive) 16797 del vars, 4 del conss, 0 add conss, 0 chg bounds, 3 chg sides, 2500 chg coeffs, 0 upgd conss, 20763 impls, 0 clqs
presolving (3 rounds: 3 fast, 2 medium, 2 exhaustive):
 16797 deleted vars, 4 deleted constraints, 0 added constraints, 0 tightened bounds, 0 added holes, 3 changed sides, 2500 changed coefficients
 20763 implications, 0 cliques
presolved problem has 4735 variables (145 bin, 0 int, 0 impl, 4590 cont) and 4331 constraints
   3915 constraints of type <varbound>
    415 constraints of type <linear>
      1 constraints of type <logicor>
Presolving Time: 2.87
transformed 14/100 original solutions to the transformed problem space

 time | node  | left  |LP iter|LP it/n|mem/heur|mdpt |vars |cons |rows |cuts |sepa|confs|strbr|  dualbound   | primalbound  |  gap   | compl. 
 53.8s|     1 |     0 |  5216 |     - |   695M |   0 |4735 |4331 |4330 |   0 |  0 |  38k|   0 | 5.321434e+05 | 5.325020e+05 |   0.07%| unknown
 53.8s|     1 |     0 |  5216 |     - |   695M |   0 |4735 |4331 |4088 |   0 |  0 |  38k|   0 | 5.321434e+05 | 5.325020e+05 |   0.07%| unknown
 54.1s|     1 |     0 |  5251 |     - |   696M |   0 |4735 |4330 |3955 |   4 |  1 |  38k|   0 | 5.321512e+05 | 5.325020e+05 |   0.07%| unknown
 54.1s|     1 |     0 |  5251 |     - |   696M |   0 |4735 |4330 |3955 |   4 |  1 |  38k|   0 | 5.321512e+05 | 5.325020e+05 |   0.07%| unknown
 54.5s|     1 |     0 |  5272 |     - |   698M |   0 |4735 |4330 |3770 |   9 |  2 |  38k|   0 | 5.321548e+05 | 5.325020e+05 |   0.07%| unknown
 54.5s|     1 |     0 |  5272 |     - |   698M |   0 |4735 |4330 |3770 |   9 |  2 |  38k|   0 | 5.321548e+05 | 5.325020e+05 |   0.07%| unknown
 54.8s|     1 |     0 |  5275 |     - |   699M |   0 |4735 |4330 |3746 |  11 |  3 |  38k|   0 | 5.321551e+05 | 5.325020e+05 |   0.07%| unknown
 55.1s|     1 |     0 |  5292 |     - |   700M |   0 |4735 |4330 |3749 |  14 |  4 |  38k|   0 | 5.321569e+05 | 5.325020e+05 |   0.06%| unknown
 55.4s|     1 |     0 |  5303 |     - |   700M |   0 |4735 |4330 |3752 |  17 |  5 |  38k|   0 | 5.321578e+05 | 5.325020e+05 |   0.06%| unknown
 55.7s|     1 |     0 |  5344 |     - |   702M |   0 |4735 |4330 |3757 |  22 |  6 |  38k|   0 | 5.321628e+05 | 5.325020e+05 |   0.06%| unknown
 55.7s|     1 |     0 |  5344 |     - |   702M |   0 |4735 |4330 |3731 |  22 |  6 |  38k|   0 | 5.321628e+05 | 5.325020e+05 |   0.06%| unknown
 56.1s|     1 |     0 |  5377 |     - |   706M |   0 |4735 |4330 |3738 |  29 |  7 |  38k|   0 | 5.321709e+05 | 5.325020e+05 |   0.06%| unknown
 56.5s|     1 |     0 |  5416 |     - |   707M |   0 |4735 |4330 |3743 |  34 |  8 |  38k|   0 | 5.321784e+05 | 5.325020e+05 |   0.06%| unknown
 56.5s|     1 |     0 |  5416 |     - |   707M |   0 |4735 |4330 |3689 |  34 |  8 |  38k|   0 | 5.321784e+05 | 5.325020e+05 |   0.06%| unknown
 56.9s|     1 |     0 |  5453 |     - |   707M |   0 |4735 |4330 |3695 |  40 |  9 |  38k|   0 | 5.321849e+05 | 5.325020e+05 |   0.06%| unknown
 time | node  | left  |LP iter|LP it/n|mem/heur|mdpt |vars |cons |rows |cuts |sepa|confs|strbr|  dualbound   | primalbound  |  gap   | compl. 
 57.3s|     1 |     0 |  5480 |     - |   708M |   0 |4735 |4330 |3700 |  45 | 10 |  38k|   0 | 5.321888e+05 | 5.325020e+05 |   0.06%| unknown
 57.8s|     1 |     0 |  5502 |     - |   709M |   0 |4735 |4330 |3704 |  49 | 11 |  38k|   0 | 5.321926e+05 | 5.325020e+05 |   0.06%| unknown
(run 2, node 1) restarting after 25 global fixings of integer variables

(restart) converted 49 cuts from the global cut pool into linear constraints

presolving:
(round 1, fast)       378 del vars, 55 del conss, 0 add conss, 9 chg bounds, 54 chg sides, 3029 chg coeffs, 0 upgd conss, 20763 impls, 0 clqs
   (60.2s) running MILP presolver
   (60.2s) MILP presolver (2 rounds): 0 aggregations, 0 fixings, 0 bound changes
(round 2, exhaustive) 378 del vars, 68 del conss, 0 add conss, 11 chg bounds, 63 chg sides, 3030 chg coeffs, 0 upgd conss, 20763 impls, 0 clqs
presolving (3 rounds: 3 fast, 2 medium, 2 exhaustive):
 378 deleted vars, 68 deleted constraints, 0 added constraints, 11 tightened bounds, 0 added holes, 63 changed sides, 3030 changed coefficients
 20763 implications, 0 cliques
presolved problem has 4357 variables (118 bin, 0 int, 0 impl, 4239 cont) and 3618 constraints
   3186 constraints of type <varbound>
    432 constraints of type <linear>
Presolving Time: 3.29
transformed 16/100 original solutions to the transformed problem space

 time | node  | left  |LP iter|LP it/n|mem/heur|mdpt |vars |cons |rows |cuts |sepa|confs|strbr|  dualbound   | primalbound  |  gap   | compl. 
 60.8s|     1 |     0 |  6771 |     - |   707M |   0 |4357 |3618 |3618 |   0 |  0 |  50k|   0 | 5.321926e+05 | 5.325020e+05 |   0.06%| unknown
 60.8s|     1 |     0 |  6771 |     - |   707M |   0 |4357 |3618 |3618 |   0 |  0 |  50k|   0 | 5.321926e+05 | 5.325020e+05 |   0.06%| unknown
 61.2s|     1 |     0 |  6789 |     - |   708M |   0 |4357 |3618 |3486 |   3 |  1 |  50k|   0 | 5.321936e+05 | 5.325020e+05 |   0.06%| unknown
 61.5s|     1 |     0 |  6815 |     - |   709M |   0 |4357 |3618 |3489 |   6 |  2 |  50k|   0 | 5.321998e+05 | 5.325020e+05 |   0.06%| unknown
 61.9s|     1 |     0 |  6849 |     - |   709M |   0 |4357 |3618 |3493 |  10 |  3 |  50k|   0 | 5.322064e+05 | 5.325020e+05 |   0.06%| unknown
 61.9s|     1 |     0 |  6849 |     - |   709M |   0 |4357 |3618 |3465 |  10 |  3 |  50k|   0 | 5.322064e+05 | 5.325020e+05 |   0.06%| unknown
 62.3s|     1 |     0 |  6865 |     - |   709M |   0 |4357 |3618 |3467 |  12 |  5 |  50k|   0 | 5.322110e+05 | 5.325020e+05 |   0.05%| unknown
 62.3s|     1 |     0 |  6865 |     - |   709M |   0 |4357 |3618 |3467 |  12 |  5 |  50k|   0 | 5.322110e+05 | 5.325020e+05 |   0.05%| unknown
 62.8s|     1 |     0 |  6876 |     - |   710M |   0 |4357 |3618 |3414 |  13 |  6 |  50k|   0 | 5.322132e+05 | 5.325020e+05 |   0.05%| unknown
 63.1s|     1 |     0 |  6918 |     - |   710M |   0 |4357 |3618 |3419 |  18 |  7 |  50k|   0 | 5.322199e+05 | 5.325020e+05 |   0.05%| unknown
 63.6s|     1 |     0 |  6947 |     - |   712M |   0 |4357 |3618 |3422 |  21 |  8 |  50k|   0 | 5.322243e+05 | 5.325020e+05 |   0.05%| unknown
 63.9s|     1 |     0 |  6973 |     - |   712M |   0 |4357 |3618 |3427 |  26 |  9 |  50k|   0 | 5.322262e+05 | 5.325020e+05 |   0.05%| unknown
 63.9s|     1 |     0 |  6973 |     - |   712M |   0 |4357 |3618 |3401 |  26 |  9 |  50k|   0 | 5.322262e+05 | 5.325020e+05 |   0.05%| unknown
 64.1s|     1 |     0 |  6980 |     - |   713M |   0 |4357 |3618 |3404 |  29 | 10 |  50k|   0 | 5.322268e+05 | 5.325020e+05 |   0.05%| unknown
 64.5s|     1 |     0 |  7016 |     - |   713M |   0 |4357 |3618 |3407 |  32 | 11 |  50k|   0 | 5.322288e+05 | 5.325020e+05 |   0.05%| unknown
 time | node  | left  |LP iter|LP it/n|mem/heur|mdpt |vars |cons |rows |cuts |sepa|confs|strbr|  dualbound   | primalbound  |  gap   | compl. 
 66.2s|     1 |     0 |  7571 |     - |   713M |   0 |4357 |3315 |3407 |  32 | 11 |  53k|  15 | 5.322591e+05 | 5.325020e+05 |   0.05%| unknown
 66.3s|     1 |     0 |  7593 |     - |   714M |   0 |4357 |3315 |3408 |  33 | 12 |  53k|  15 | 5.322591e+05 | 5.325020e+05 |   0.05%| unknown
 66.4s|     1 |     0 |  7608 |     - |   714M |   0 |4357 |3315 |3410 |  35 | 13 |  53k|  15 | 5.322591e+05 | 5.325020e+05 |   0.05%| unknown
 66.5s|     1 |     0 |  7614 |     - |   714M |   0 |4357 |3258 |3410 |  35 | 13 |  53k|  18 | 5.322591e+05 | 5.325020e+05 |   0.05%| unknown
 66.6s|     1 |     0 |  7622 |     - |   714M |   0 |4357 |3258 |3304 |  36 | 14 |  53k|  18 | 5.322591e+05 | 5.325020e+05 |   0.05%| unknown
 66.7s|     1 |     0 |  7638 |     - |   714M |   0 |4357 |3227 |3304 |  36 | 15 |  53k|  19 | 5.322591e+05 | 5.325020e+05 |   0.05%| unknown
 66.9s|     1 |     0 |  7643 |     - |   714M |   0 |4357 |3227 |3307 |  39 | 16 |  53k|  19 | 5.322591e+05 | 5.325020e+05 |   0.05%| unknown
 66.9s|     1 |     0 |  7656 |     - |   714M |   0 |4357 |3227 |3308 |  40 | 17 |  53k|  19 | 5.322591e+05 | 5.325020e+05 |   0.05%| unknown
 66.9s|     1 |     0 |  7665 |     - |   714M |   0 |4357 |3169 |3308 |  40 | 17 |  57k|  20 | 5.322591e+05 | 5.325020e+05 |   0.05%| unknown
 67.1s|     1 |     0 |  7683 |     - |   715M |   0 |4357 |3169 |3313 |  45 | 18 |  57k|  20 | 5.322591e+05 | 5.325020e+05 |   0.05%| unknown
 67.3s|     1 |     0 |  7694 |     - |   715M |   0 |4357 |3139 |3313 |  45 | 19 |  57k|  25 | 5.322591e+05 | 5.325020e+05 |   0.05%| unknown
 67.4s|     1 |     0 |  7701 |     - |   715M |   0 |4357 |3139 |2984 |  46 | 20 |  57k|  25 | 5.322591e+05 | 5.325020e+05 |   0.05%| unknown
 67.4s|     1 |     2 |  7701 |     - |   715M |   0 |4357 |3055 |2984 |  46 | 21 |  57k|  25 | 5.322591e+05 | 5.325020e+05 |   0.05%| unknown

SCIP Status        : problem is solved [optimal solution found]
Solving Time (sec) : 70.17
Solving Nodes      : 33 (total of 35 nodes in 3 runs)
Primal Bound       : +5.32502000000000e+05 (373 solutions)
Dual Bound         : +5.32502000000000e+05
Gap                : 0.00 %
Solve Status: optimal
Solve Time: 70.29 seconds
Objective Value: 532502.00
